RAW/XT/fspd-mid/X-n129-k18.vrp_seed-9.out
26123	149.359	170.508
