RAW/XT/fspd-mid/X-n129-k18.vrp_seed-9.sol
Route #1: 3
Route #2: 64 44 1 23 59 18 88
Route #3: 86 93 75 103 89 66 15 91
Route #4: 84 25 62 56 13 57 35 77 60 90
Route #5: 7 54 22 45 29 6 19 63 20 50
Route #6: 65 105 11 41 40 55 61 85 76 79 10 104
Route #7: 47 127 28 118 38
Route #8: 113 82 27 52 119 78
Route #9: 32 114 73 49 92 116 95 96 12 16
Route #10: 53 123 117 99 42 97 31 125
Route #11: 26 126 71 108 100 72 112 102
Route #12: 67 39 43 30 124 9
Route #13: 24 83 109 51 120 37 8 69 14 74
Route #14: 5 106 68 98 4 111 121 87 80
Route #15: 128 110 17 101 58 48 2 34 21 33 46
Route #16: 94 81 36 107 122 115 70
Cost 26123.000000